proyfinal/src/viki/013/experimentInOfficeAgust.take6.output/2f40a79c-3c96-42a3-8903-8e447552f6fd.als.out
Reading from standard input... Use '--help' for help.
============================[ Problem Statistics ]=============================
|                                                                             |
|  Number of variables:         87638                                         |
|  Number of clauses:          161767                                         |
|  Parse time:                   0.04 s                                       |
|                                                                             |
============================[ Search Statistics ]==============================
| Conflicts |          ORIGINAL         |          LEARNT          | Progress |
|           |    Vars  Clauses Literals |    Limit  Clauses Lit/Cl |          |
===============================================================================
|       100 |   63063   107662   269239 |    39476      100     36 | 28.041 % |
|       250 |   63063   107662   269239 |    43423      250     83 | 28.041 % |
|       475 |   63063   107662   269239 |    47766      475     75 | 28.041 % |
|       812 |   63062   107618   269149 |    52542      807     77 | 28.043 % |
|      1318 |   63062   107618   269149 |    57796     1313     66 | 28.043 % |
|      2077 |   43991    50951   129817 |    63576     2063     62 | 49.804 % |
===============================================================================
restarts              : 15
conflicts             : 3193           (8894 /sec)
decisions             : 13038          (0.00 % random) (36318 /sec)
propagations          : 4095393        (11407843 /sec)
conflict literals     : 156725         (49.39 % deleted)
Memory used           : 24.61 MB
CPU time              : 0.358998 s

UNSATISFIABLE
